Instance name : SB_bar-n100-6
Authors : 
Date : 
Reference 
Solution
Route 1 : 31 32 81 38 82 88 41 37 91 48 87 21 71 6 44 98 56 36 33 86 83 94 
Route 2 : 20 34 25 40 84 70 75 30 80 90 19 28 13 69 23 73 26 27 77 78 3 49 63 76 14 53 64 99 
Route 3 : 12 43 93 16 42 62 18 66 1 68 51 7 57 9 8 58 59 92 15 46 65 96 
Route 4 : 4 29 22 79 47 72 97 54 5 17 2 67 11 45 95 35 55 85 10 52 61 60 24 50 39 100 89 74 
